MARKOV
922
 2 2 2 2 2 2 2 2 2 2 2 2 2 2 2 2 2 2 2 2 2 2 2 2 2 2 2 2 2 2 2 2 2 2 2 2 2 2 2 2 2 2 2 2 2 2 2 2 2 2 2 2 2 2 2 2 2 2 2 2 2 2 2 2 2 2 2 2 2 2 2 2 2 2 2 2 2 2 2 2 2 2 2 2 2 2 2 2 2 2 2 2 2 2 2 2 2 2 2 2 2 2 2 2 2 2 2 2 2 2 2 2 2 2 2 2 2 2 2 2 2 2 2 2 2 2 2 2 2 2 2 2 2 2 2 2 2 2 2 2 2 2 2 2 2 2 2 2 2 2 2 2 2 2 2 2 2 2 2 2 2 2 2 2 2 2 2 2 2 2 2 2 2 2 2 2 2 2 2 2 2 2 2 2 2 2 2 2 2 2 2 2 2 2 2 2 2 2 2 2 2 2 2 2 2 2 2 2 2 2 2 2 2 2 2 2 2 2 2 2 2 2 2 2 2 2 2 2 2 2 2 2 2 2 2 2 2 2 2 2 2 2 2 2 2 2 2 2 2 2 2 2 2 2 2 2 2 2 2 2 2 2 2 2 2 2 2 2 2 2 2 2 2 2 2 2 2 2 2 2 2 2 2 2 2 2 2 2 2 2 2 2 2 2 2 2 2 2 2 2 2 2 2 2 2 2 2 2 2 2 2 2 2 2 2 2 2 2 2 2 2 2 2 2 2 2 2 2 2 2 2 2 2 2 2 2 2 2 2 2 2 2 2 2 2 2 2 2 2 2 2 2 2 2 2 2 2 2 2 2 2 2 2 2 2 2 2 2 2 2 2 2 2 2 2 2 2 2 2 2 2 2 2 2 2 2 2 2 2 2 2 2 2 2 2 2 2 2 2 2 2 2 2 2 2 2 2 2 2 2 2 2 2 2 2 2 2 2 2 2 2 2 2 2 2 2 2 2 2 2 2 2 2 2 2 2 2 2 2 2 2 2 2 2 2 2 2 2 2 2 2 2 2 2 2 2 2 2 2 2 2 2 2 2 2 2 2 2 2 2 2 2 2 2 2 2 2 2 2 2 2 2 2 2 2 2 2 2 2 2 2 2 2 2 2 2 2 2 2 2 2 2 2 2 2 2 2 2 2 2 2 2 2 2 2 2 2 2 2 2 2 2 2 2 2 2 2 2 2 2 2 2 2 2 2 2 2 2 2 2 2 2 2 2 2 2 2 2 2 2 2 2 2 2 2 2 2 2 2 2 2 2 2 2 2 2 2 2 2 2 2 2 2 2 2 2 2 2 2 2 2 2 2 2 2 2 2 2 2 2 2 2 2 2 2 2 2 2 2 2 2 2 2 2 2 2 2 2 2 2 2 2 2 2 2 2 2 2 2 2 2 2 2 2 2 2 2 2 2 2 2 2 2 2 2 2 2 2 2 2 2 2 2 2 2 2 2 2 2 2 2 2 2 2 2 2 2 2 2 2 2 2 2 2 2 2 2 2 2 2 2 2 2 2 2 2 2 2 2 2 2 2 2 2 2 2 2 2 2 2 2 2 2 2 2 2 2 2 2 2 2 2 2 2 2 2 2 2 2 2 2 2 2 2 2 2 2 2 2 2 2 2 2 2 2 2 2 2 2 2 2 2 2 2 2 2 2 2 2 2 2 2 2 2 2 2 2 2 2 2 2 2 2 2 2 2 2 2 2 2 2 2 2 2 2 2 2 2 2 2 2 2 2 2 2 2 2 2 2 2 2 2 2 2 2 2 2 2 2 2 2 2 2 2 2 2 2 2 2 2 2 2 2 2 2 2 2 2 2 2 2 2 2 2 2 2 2 2 2 2 2 2 2 2 2 2 2 2 2 2 2 2 2 2 2 2 2 2 2 2 2 2 2 2 2 2 2 2 2 2 2 2 2 2 2 2 2 2 2 2 2 2 2 2 2 2 2 2 2 2 2 2 2 2 2 2 2 2 2 2 2 2 2 2 2 2 2 2 2 2 2 2 2 2 2 2 2 2 2 2 2 2 2 2 2 2 2 2 2 2 2 2 2 2 2 2 2 2 2 2 2 2
929
3	106 271 921 
3	235 920 921 
3	186 919 920 
3	195 918 919 
3	265 917 918 
3	157 916 917 
3	220 915 916 
3	169 914 915 
3	4 913 914 
3	346 912 913 
3	23 911 912 
3	10 910 911 
3	187 909 910 
3	282 908 909 
3	108 907 908 
3	342 906 907 
3	115 905 906 
3	90 904 905 
3	215 903 904 
3	64 902 903 
3	290 901 902 
3	112 900 901 
3	324 899 900 
3	184 898 899 
3	91 897 898 
3	358 896 897 
3	104 895 896 
3	13 894 895 
3	40 893 894 
3	231 892 893 
3	139 891 892 
3	26 890 891 
3	21 889 890 
3	349 888 889 
3	205 887 888 
3	174 886 887 
3	264 885 886 
3	305 884 885 
3	52 883 884 
3	57 882 883 
3	42 881 882 
3	141 880 881 
3	118 879 880 
3	352 878 879 
3	48 877 878 
3	233 876 877 
3	8 875 876 
3	72 874 875 
3	172 873 874 
3	83 872 873 
3	369 871 872 
3	204 870 871 
3	203 869 870 
3	263 868 869 
3	54 867 868 
3	382 866 867 
3	259 865 866 
3	286 864 865 
3	127 863 864 
3	78 862 863 
3	96 861 862 
3	266 860 861 
3	41 859 860 
3	135 858 859 
1	858 
1	247 
3	144 180 857 
3	301 856 857 
3	0 855 856 
3	260 854 855 
3	228 853 854 
3	62 852 853 
3	288 851 852 
3	268 850 851 
3	162 849 850 
3	146 848 849 
3	136 847 848 
3	309 846 847 
3	10 845 846 
3	65 844 845 
3	379 843 844 
3	353 842 843 
3	274 841 842 
3	39 840 841 
3	226 839 840 
3	190 838 839 
3	334 837 838 
3	110 836 837 
3	360 835 836 
3	273 834 835 
3	71 833 834 
3	238 832 833 
3	363 831 832 
3	9 830 831 
3	125 829 830 
3	101 828 829 
3	124 827 828 
3	250 826 827 
3	227 825 826 
3	256 824 825 
3	85 823 824 
3	27 822 823 
3	252 821 822 
3	246 820 821 
3	329 819 820 
3	272 818 819 
3	350 817 818 
3	219 816 817 
3	121 815 816 
3	19 814 815 
3	319 813 814 
3	276 812 813 
3	164 811 812 
3	357 810 811 
3	349 809 810 
3	211 808 809 
3	205 807 808 
3	229 806 807 
3	323 805 806 
3	185 804 805 
3	133 803 804 
3	302 802 803 
3	294 801 802 
3	296 800 801 
3	15 799 800 
3	11 798 799 
3	7 797 798 
3	70 796 797 
3	119 795 796 
3	331 794 795 
3	213 793 794 
3	234 792 793 
3	372 791 792 
3	245 790 791 
3	167 789 790 
3	338 788 789 
3	163 787 788 
3	242 786 787 
3	46 785 786 
3	254 784 785 
3	307 783 784 
3	216 782 783 
1	782 
3	292 301 781 
3	93 780 781 
3	120 779 780 
3	340 778 779 
3	162 777 778 
3	59 776 777 
3	66 775 776 
3	379 774 775 
3	123 773 774 
3	360 772 773 
3	261 771 772 
3	218 770 771 
3	150 769 770 
3	47 768 769 
3	189 767 768 
3	171 766 767 
3	36 765 766 
3	293 764 765 
3	329 763 764 
3	350 762 763 
3	319 761 762 
3	276 760 761 
3	211 759 760 
3	349 758 759 
3	357 757 758 
3	335 756 757 
3	107 755 756 
3	344 754 755 
3	323 753 754 
3	130 752 753 
3	159 751 752 
3	134 750 751 
3	331 749 750 
3	119 748 749 
3	76 747 748 
3	18 746 747 
3	142 745 746 
3	209 744 745 
3	325 743 744 
3	143 742 743 
3	339 741 742 
3	279 740 741 
3	55 739 740 
3	99 738 739 
3	288 737 738 
3	145 736 737 
3	374 735 736 
3	117 734 735 
3	102 733 734 
3	309 732 733 
3	146 731 732 
3	67 730 731 
3	353 729 730 
3	190 728 729 
3	221 727 728 
3	345 726 727 
3	110 725 726 
3	112 724 725 
3	238 723 724 
3	101 722 723 
3	125 721 722 
3	14 720 721 
3	191 719 720 
3	86 718 719 
3	85 717 718 
3	362 716 717 
3	318 715 716 
3	310 714 715 
3	270 713 714 
3	30 712 713 
3	81 711 712 
3	6 710 711 
3	272 709 710 
3	79 708 709 
3	206 707 708 
3	219 706 707 
3	95 705 706 
3	121 704 705 
3	277 703 704 
3	25 702 703 
3	131 701 702 
3	229 700 701 
3	166 699 700 
3	185 698 699 
3	313 697 698 
3	348 696 697 
3	294 695 696 
3	296 694 695 
3	118 693 694 
3	11 692 693 
3	243 691 692 
3	89 690 691 
3	80 689 690 
3	245 688 689 
3	241 687 688 
3	167 686 687 
3	163 685 686 
3	356 684 685 
3	138 683 684 
3	307 682 683 
3	266 681 682 
3	180 680 681 
3	188 679 680 
3	144 678 679 
3	77 677 678 
3	0 676 677 
3	260 675 676 
3	354 674 675 
3	62 673 674 
3	87 672 673 
3	53 671 672 
3	268 670 671 
3	351 669 670 
3	10 668 669 
3	65 667 668 
3	304 666 667 
3	364 665 666 
3	39 664 665 
3	334 663 664 
3	71 662 663 
3	9 661 662 
3	363 660 661 
3	240 659 660 
3	250 658 659 
3	124 657 658 
3	227 656 657 
3	291 655 656 
3	175 654 655 
3	337 653 654 
3	285 652 653 
3	343 651 652 
3	19 650 651 
3	94 649 650 
3	165 648 649 
3	280 647 648 
3	371 646 647 
3	251 645 646 
3	44 644 645 
3	181 643 644 
3	315 642 643 
3	133 641 642 
3	223 640 641 
3	284 639 640 
3	262 638 639 
3	213 637 638 
3	210 636 637 
3	234 635 636 
3	178 634 635 
3	109 633 634 
3	372 632 633 
3	281 631 632 
3	338 630 631 
3	46 629 630 
3	300 628 629 
3	161 627 628 
3	320 626 627 
3	328 625 626 
3	183 624 625 
3	228 623 624 
3	381 622 623 
3	297 621 622 
3	3 620 621 
3	31 619 620 
3	43 618 619 
3	37 617 618 
3	136 616 617 
3	274 615 616 
3	226 614 615 
3	347 613 614 
3	273 612 613 
3	20 611 612 
3	256 610 611 
3	373 609 610 
3	311 608 609 
3	27 607 608 
3	252 606 607 
3	246 605 606 
3	212 604 605 
3	164 603 604 
3	378 602 603 
3	205 601 602 
3	114 600 601 
3	73 599 600 
3	68 598 599 
3	63 597 598 
3	302 596 597 
3	17 595 596 
3	15 594 595 
3	7 593 594 
3	70 592 593 
3	33 591 592 
3	242 590 591 
3	254 589 590 
3	82 588 589 
3	216 587 588 
1	587 
3	144 292 586 
3	103 585 586 
3	197 584 585 
3	105 583 584 
3	155 582 583 
3	354 581 582 
3	62 580 581 
3	160 579 580 
3	87 578 579 
3	120 577 578 
3	75 576 577 
3	149 575 576 
3	275 574 575 
3	351 573 574 
3	268 572 573 
3	113 571 572 
3	317 570 571 
3	59 569 570 
3	199 568 569 
3	10 567 568 
3	97 566 567 
3	253 565 566 
3	278 564 565 
3	225 563 564 
3	289 562 563 
3	182 561 562 
3	28 560 561 
3	290 559 560 
3	367 558 559 
3	116 557 558 
3	156 556 557 
3	5 555 556 
3	71 554 555 
3	111 553 554 
3	218 552 553 
3	9 551 552 
3	375 550 551 
3	336 549 550 
3	355 548 549 
3	47 547 548 
3	88 546 547 
3	291 545 546 
3	154 544 545 
3	60 543 544 
3	38 542 543 
3	224 541 542 
3	61 540 541 
3	147 539 540 
3	217 538 539 
3	179 537 538 
3	2 536 537 
3	74 535 536 
3	368 534 535 
3	335 533 534 
3	107 532 533 
3	151 531 532 
3	239 530 531 
3	122 529 530 
3	280 528 529 
3	295 527 528 
3	92 526 527 
3	44 525 526 
3	315 524 525 
3	202 523 524 
3	48 522 523 
3	168 521 522 
3	262 520 521 
3	298 519 520 
3	198 518 519 
3	72 517 518 
3	132 516 517 
3	177 515 516 
3	35 514 515 
3	29 513 514 
3	84 512 513 
3	306 511 512 
3	236 510 511 
3	207 509 510 
3	98 508 509 
3	49 507 508 
3	332 506 507 
3	380 505 506 
3	300 504 505 
3	100 503 504 
3	193 502 503 
3	161 501 502 
3	153 500 501 
3	320 499 500 
3	308 498 499 
3	228 497 498 
3	143 496 497 
3	128 495 496 
3	321 494 495 
3	258 493 494 
3	279 492 493 
3	145 491 492 
3	31 490 491 
3	333 489 490 
3	50 488 489 
3	37 487 488 
3	208 486 487 
3	314 485 486 
3	226 484 485 
3	244 483 484 
3	283 482 483 
3	347 481 482 
3	341 480 481 
3	112 479 480 
3	126 478 479 
3	140 477 478 
3	267 476 477 
3	200 475 476 
3	58 474 475 
3	312 473 474 
3	287 472 473 
3	373 471 472 
3	16 470 471 
3	362 469 470 
3	56 468 469 
3	376 467 468 
3	322 466 467 
3	330 465 466 
3	249 464 465 
3	194 463 464 
3	212 462 463 
3	270 461 462 
3	30 460 461 
3	201 459 460 
3	214 458 459 
3	222 457 458 
3	152 456 457 
3	1 455 456 
3	327 454 455 
3	219 453 454 
3	24 452 453 
3	173 451 452 
3	277 450 451 
3	69 449 450 
3	264 448 449 
3	12 447 448 
3	137 446 447 
3	73 445 446 
3	176 444 445 
3	166 443 444 
3	313 442 443 
3	365 441 442 
3	248 440 441 
3	377 439 440 
3	22 438 439 
3	51 437 438 
3	255 436 437 
3	294 435 436 
3	243 434 435 
3	237 433 434 
3	196 432 433 
3	32 431 432 
3	80 430 431 
3	34 429 430 
3	370 428 429 
3	129 427 428 
3	383 426 427 
3	148 425 426 
3	307 424 425 
3	82 423 424 
3	359 422 423 
3	361 421 422 
1	421 
3	45 219 420 
3	299 419 420 
3	155 418 419 
3	173 417 418 
3	62 416 417 
3	277 415 416 
3	160 414 415 
3	269 413 414 
3	303 412 413 
3	239 411 412 
3	12 410 411 
3	149 409 410 
3	366 408 409 
3	158 407 408 
3	192 406 407 
3	317 405 406 
3	10 404 405 
3	289 403 404 
3	118 402 403 
3	226 401 402 
3	48 400 401 
3	71 399 400 
3	198 398 399 
3	326 397 398 
3	9 396 397 
3	170 395 396 
3	58 394 395 
3	232 393 394 
3	32 392 393 
3	236 391 392 
3	56 390 391 
3	316 389 390 
3	147 388 389 
3	270 387 388 
3	148 386 387 
3	230 385 386 
3	257 384 385 
1	384 
1	103 
1	235 
1	160 
1	93 
1	75 
1	317 
1	340 
1	59 
1	199 
1	23 
1	278 
1	115 
1	367 
1	123 
1	111 
1	232 
1	336 
1	88 
1	47 
1	171 
1	61 
1	293 
1	74 
1	350 
1	211 
1	357 
1	269 
1	335 
1	174 
1	295 
1	92 
1	202 
1	168 
1	198 
1	172 
1	119 
1	236 
1	18 
1	369 
1	142 
1	127 
1	209 
1	380 
1	143 
1	279 
1	99 
1	288 
1	146 
1	342 
1	314 
1	353 
1	283 
1	190 
1	221 
1	345 
1	140 
1	238 
1	101 
1	14 
1	312 
1	16 
1	85 
1	56 
1	376 
1	249 
1	30 
1	40 
1	81 
1	272 
1	139 
1	219 
1	121 
1	131 
1	229 
1	192 
1	313 
1	166 
1	185 
1	57 
1	294 
1	89 
1	196 
1	241 
1	129 
1	383 
1	78 
1	96 
1	180 
1	77 
1	260 
1	105 
1	155 
1	354 
1	62 
1	186 
1	87 
1	53 
1	4 
1	10 
1	253 
1	65 
1	28 
1	39 
1	334 
1	116 
1	71 
1	363 
1	240 
1	355 
1	227 
1	60 
1	224 
1	38 
1	13 
1	179 
1	175 
1	337 
1	26 
1	239 
1	122 
1	280 
1	165 
1	371 
1	158 
1	251 
1	44 
1	133 
1	141 
1	284 
1	262 
1	132 
1	207 
1	234 
1	98 
1	382 
1	300 
1	100 
1	193 
1	161 
1	153 
1	320 
1	328 
1	183 
1	228 
1	195 
1	128 
1	297 
1	258 
1	3 
1	31 
1	43 
1	37 
1	136 
1	347 
1	126 
1	267 
1	20 
1	58 
1	287 
1	373 
1	256 
1	316 
1	27 
1	252 
1	246 
1	152 
1	1 
1	21 
1	24 
1	164 
1	173 
1	114 
1	12 
1	68 
1	176 
1	305 
1	63 
1	365 
1	248 
1	22 
1	302 
1	255 
1	17 
1	352 
1	233 
1	7 
1	70 
1	237 
1	83 
1	54 
1	33 
1	82 
1	216 
1	292 
1	106 
1	301 
1	197 
1	220 
1	120 
1	303 
1	275 
1	162 
1	66 
1	289 
1	225 
1	379 
1	282 
1	182 
1	5 
1	360 
1	218 
1	261 
1	326 
1	150 
1	189 
1	147 
1	217 
1	36 
1	329 
1	319 
1	276 
1	349 
1	107 
1	151 
1	344 
1	323 
1	130 
1	52 
1	159 
1	42 
1	72 
1	134 
1	331 
1	29 
1	306 
1	76 
1	204 
1	49 
1	286 
1	332 
1	325 
1	299 
1	321 
1	339 
1	55 
1	145 
1	374 
1	366 
1	117 
1	50 
1	346 
1	102 
1	309 
1	108 
1	67 
1	244 
1	215 
1	341 
1	112 
1	110 
1	200 
1	125 
1	184 
1	247 
1	191 
1	86 
1	362 
1	318 
1	322 
1	310 
1	330 
1	104 
1	270 
1	6 
1	79 
1	327 
1	45 
1	206 
1	95 
1	277 
1	25 
1	69 
1	264 
1	348 
1	51 
1	118 
1	296 
1	11 
1	243 
1	80 
1	245 
1	34 
1	370 
1	167 
1	163 
1	356 
1	138 
1	307 
1	266 
1	359 
1	41 
1	135 
1	271 
1	144 
1	188 
1	0 
1	149 
1	351 
1	268 
1	113 
1	97 
1	304 
1	364 
1	64 
1	290 
1	156 
1	9 
1	375 
1	250 
1	124 
1	91 
1	291 
1	154 
1	358 
1	2 
1	285 
1	343 
1	19 
1	94 
1	368 
1	181 
1	315 
1	223 
1	48 
1	8 
1	298 
1	177 
1	35 
1	84 
1	213 
1	210 
1	178 
1	109 
1	372 
1	203 
1	281 
1	338 
1	263 
1	46 
1	257 
1	308 
1	381 
1	265 
1	157 
1	169 
1	333 
1	208 
1	187 
1	274 
1	90 
1	226 
1	324 
1	273 
1	170 
1	311 
1	194 
1	212 
1	201 
1	214 
1	222 
1	231 
1	378 
1	205 
1	73 
1	137 
1	377 
1	15 
1	32 
1	259 
1	242 
1	148 
1	254 
1	230 
1	361 
0	

8
 1 0 0.89 0.11 0.5 0.5 0.445 0.555
8
 1 0 0 1 0.5 0 0.5 1
8
 1 0 0 1 0.89 0 0.11 1
8
 1 0 0 1 0 0 1 1
8
 1 0 0 1 0.5 0 0.5 1
8
 1 0 0 1 0.5 0 0.5 1
8
 1 0 0 1 0.5 0 0.5 1
8
 1 0 0 1 0.4 0 0.6 1
8
 1 0 0 1 0.1 0 0.9 1
8
 1 0 0 1 0.5 0 0.5 1
8
 1 0 0 1 0.01 0 0.99 1
8
 1 0 0 1 0.9 0 0.1 1
8
 1 0 0 1 0.5 0 0.5 1
8
 1 0 0 1 0.9 0 0.1 1
8
 1 0 0 1 0.01 0 0.99 1
8
 1 0 0 1 0.1 0 0.9 1
8
 1 0 0 1 0.01 0 0.99 1
8
 1 0 0 1 0.89 0 0.11 1
8
 1 0 0 1 0.5 0 0.5 1
8
 1 0 0 1 0.5 0 0.5 1
8
 1 0 0 1 0.4 0 0.6 1
8
 1 0 0 1 0.63 0 0.37 1
8
 1 0 0 1 0.8 0 0.2 1
8
 1 0 0 1 0.89 0 0.11 1
8
 1 0 0 1 0.89 0 0.11 1
8
 1 0 0 1 0.01 0 0.99 1
8
 1 0 0 1 0.5 0 0.5 1
8
 1 0 0 1 0.95 0 0.05 1
8
 1 0 0 1 0.89 0 0.11 1
8
 1 0 0 1 0.5 0 0.5 1
8
 1 0 0 1 0.5 0 0.5 1
8
 1 0 0 1 0.7 0 0.3 1
8
 1 0 0 1 0.5 0 0.5 1
8
 1 0 0 1 0.2 0 0.8 1
8
 1 0 0 1 0.89 0 0.11 1
8
 1 0 0 1 0.5 0 0.5 1
8
 1 0 0 1 0.89 0 0.11 1
8
 1 0 0 1 0.09 0 0.91 1
8
 1 0 0 1 0.09 0 0.91 1
8
 1 0 0 1 0.5 0 0.5 1
8
 1 0 0 1 0.89 0 0.11 1
8
 1 0 0 1 0.9 0 0.1 1
8
 1 0 0 1 0.5 0 0.5 1
8
 1 0 0 1 0.5 0 0.5 1
8
 1 0 0 1 0.89 0 0.11 1
8
 1 0 0 1 0.5 0 0.5 1
8
 1 0 0 1 0.5 0 0.5 1
8
 1 0 0 1 0.89 0 0.11 1
8
 1 0 0 1 0.5 0 0.5 1
8
 1 0 0 1 0.89 0 0.11 1
8
 1 0 0 1 0.5 0 0.5 1
8
 1 0 0 1 0.5 0 0.5 1
8
 1 0 0 1 0.5 0 0.5 1
8
 1 0 0 1 0 0 1 1
8
 1 0 0 1 0.1 0 0.9 1
8
 1 0 0 1 0.5 0 0.5 1
8
 1 0 0 1 0.5 0 0.5 1
8
 1 0 0 1 0.89 0 0.11 1
8
 1 0 0 1 0.89 0 0.11 1
8
 1 0 0 1 0.2 0 0.8 1
8
 1 0 0 1 0.4 0 0.6 1
8
 1 0 0 1 0.4 0 0.6 1
8
 1 0 0 1 0.89 0 0.11 1
8
 1 0 0 1 0.01 0 0.99 1
2
 0.03 1
2
 0 0.8
8
 1 0 0 1 0 1 0 1
8
 1 0 0 1 0 0 1 1
8
 1 0 0 1 0 0 1 1
8
 1 0 0 1 0 0 1 1
8
 1 0 0 1 0 0 1 1
8
 1 0 0 1 0 0 1 1
8
 1 0 0 1 0 0 1 1
8
 1 0 0 1 0 0 1 1
8
 1 0 0 1 0 0 1 1
8
 1 0 0 1 0 0 1 1
8
 1 0 0 1 0 0 1 1
8
 1 0 0 1 0 0 1 1
8
 1 0 0 1 0 0 1 1
8
 1 0 0 1 0 0 1 1
8
 1 0 0 1 0 0 1 1
8
 1 0 0 1 0 0 1 1
8
 1 0 0 1 0 0 1 1
8
 1 0 0 1 0 0 1 1
8
 1 0 0 1 0 0 1 1
8
 1 0 0 1 0 0 1 1
8
 1 0 0 1 0 0 1 1
8
 1 0 0 1 0 0 1 1
8
 1 0 0 1 0 0 1 1
8
 1 0 0 1 0 0 1 1
8
 1 0 0 1 0 0 1 1
8
 1 0 0 1 0 0 1 1
8
 1 0 0 1 0 0 1 1
8
 1 0 0 1 0 0 1 1
8
 1 0 0 1 0 0 1 1
8
 1 0 0 1 0 0 1 1
8
 1 0 0 1 0 0 1 1
8
 1 0 0 1 0 0 1 1
8
 1 0 0 1 0 0 1 1
8
 1 0 0 1 0 0 1 1
8
 1 0 0 1 0 0 1 1
8
 1 0 0 1 0 0 1 1
8
 1 0 0 1 0 0 1 1
8
 1 0 0 1 0 0 1 1
8
 1 0 0 1 0 0 1 1
8
 1 0 0 1 0 0 1 1
8
 1 0 0 1 0 0 1 1
8
 1 0 0 1 0 0 1 1
8
 1 0 0 1 0 0 1 1
8
 1 0 0 1 0 0 1 1
8
 1 0 0 1 0 0 1 1
8
 1 0 0 1 0 0 1 1
8
 1 0 0 1 0 0 1 1
8
 1 0 0 1 0 0 1 1
8
 1 0 0 1 0 0 1 1
8
 1 0 0 1 0 0 1 1
8
 1 0 0 1 0 0 1 1
8
 1 0 0 1 0 0 1 1
8
 1 0 0 1 0 0 1 1
8
 1 0 0 1 0 0 1 1
8
 1 0 0 1 0 0 1 1
8
 1 0 0 1 0 0 1 1
8
 1 0 0 1 0 0 1 1
8
 1 0 0 1 0 0 1 1
8
 1 0 0 1 0 0 1 1
8
 1 0 0 1 0 0 1 1
8
 1 0 0 1 0 0 1 1
8
 1 0 0 1 0 0 1 1
8
 1 0 0 1 0 0 1 1
8
 1 0 0 1 0 0 1 1
8
 1 0 0 1 0 0 1 1
8
 1 0 0 1 0 0 1 1
8
 1 0 0 1 0 0 1 1
8
 1 0 0 1 0 0 1 1
8
 1 0 0 1 0 0 1 1
8
 1 0 0 1 0 0 1 1
8
 1 0 0 1 0 0 1 1
8
 1 0 0 1 0 0 1 1
8
 1 0 0 1 0 0 1 1
8
 1 0 0 1 0 0 1 1
8
 1 0 0 1 0 0 1 1
8
 1 0 0 1 0 0 1 1
2
 0.03 1
8
 1 0 0 1 0.9 0.1 0 1
8
 1 0 0 1 0.2 0 0.8 1
8
 1 0 0 1 0.4 0 0.6 1
8
 1 0 0 1 0.5 0 0.5 1
8
 1 0 0 1 0 0 1 1
8
 1 0 0 1 0.9 0 0.1 1
8
 1 0 0 1 0.5 0 0.5 1
8
 1 0 0 1 0.89 0 0.11 1
8
 1 0 0 1 0.5 0 0.5 1
8
 1 0 0 1 0 0 1 1
8
 1 0 0 1 0.89 0 0.11 1
8
 1 0 0 1 0.5 0 0.5 1
8
 1 0 0 1 0.2 0 0.8 1
8
 1 0 0 1 0.4 0 0.6 1
8
 1 0 0 1 0.1 0 0.9 1
8
 1 0 0 1 0.5 0 0.5 1
8
 1 0 0 1 0.5 0 0.5 1
8
 1 0 0 1 0.1 0 0.9 1
8
 1 0 0 1 0 0 1 1
8
 1 0 0 1 0.5 0 0.5 1
8
 1 0 0 1 0.01 0 0.99 1
8
 1 0 0 1 0 0 1 1
8
 1 0 0 1 0 0 1 1
8
 1 0 0 1 0 0 1 1
8
 1 0 0 1 0 0 1 1
8
 1 0 0 1 0.5 0 0.5 1
8
 1 0 0 1 0.9 0 0.1 1
8
 1 0 0 1 0.5 0 0.5 1
8
 1 0 0 1 0 0 1 1
8
 1 0 0 1 0.5 0 0.5 1
8
 1 0 0 1 0.9 0 0.1 1
8
 1 0 0 1 0.5 0 0.5 1
8
 1 0 0 1 0.1 0 0.9 1
8
 1 0 0 1 0 0 1 1
8
 1 0 0 1 0.1 0 0.9 1
8
 1 0 0 1 0.5 0 0.5 1
8
 1 0 0 1 0.9 0 0.1 1
8
 1 0 0 1 0.5 0 0.5 1
8
 1 0 0 1 0.5 0 0.5 1
8
 1 0 0 1 0.9 0 0.1 1
8
 1 0 0 1 0.09 0 0.91 1
8
 1 0 0 1 0.5 0 0.5 1
8
 1 0 0 1 0.1 0 0.9 1
8
 1 0 0 1 0.5 0 0.5 1
8
 1 0 0 1 0.5 0 0.5 1
8
 1 0 0 1 0.9 0 0.1 1
8
 1 0 0 1 0.09 0 0.91 1
8
 1 0 0 1 0.5 0 0.5 1
8
 1 0 0 1 0.5 0 0.5 1
8
 1 0 0 1 0 0 1 1
8
 1 0 0 1 0 0 1 1
8
 1 0 0 1 0.5 0 0.5 1
8
 1 0 0 1 0 0 1 1
8
 1 0 0 1 0 0 1 1
8
 1 0 0 1 0.5 0 0.5 1
8
 1 0 0 1 0.1 0 0.9 1
8
 1 0 0 1 0.5 0 0.5 1
8
 1 0 0 1 0.57 0 0.43 1
8
 1 0 0 1 0 0 1 1
8
 1 0 0 1 0 0 1 1
8
 1 0 0 1 0 0 1 1
8
 1 0 0 1 0.5 0 0.5 1
8
 1 0 0 1 0.5 0 0.5 1
8
 1 0 0 1 0.9 0 0.1 1
8
 1 0 0 1 0 0 1 1
8
 1 0 0 1 0.5 0 0.5 1
8
 1 0 0 1 0.1 0 0.9 1
8
 1 0 0 1 0.5 0 0.5 1
8
 1 0 0 1 0.1 0 0.9 1
8
 1 0 0 1 0.5 0 0.5 1
8
 1 0 0 1 0.4 0 0.6 1
8
 1 0 0 1 0.5 0 0.5 1
8
 1 0 0 1 0 0 1 1
8
 1 0 0 1 0.5 0 0.5 1
8
 1 0 0 1 0.9 0 0.1 1
8
 1 0 0 1 0 0 1 1
8
 1 0 0 1 0.5 0 0.5 1
8
 1 0 0 1 0 0 1 1
8
 1 0 0 1 0.89 0 0.11 1
8
 1 0 0 1 0.5 0 0.5 1
8
 1 0 0 1 0.5 0 0.5 1
8
 1 0 0 1 0 0 1 1
8
 1 0 0 1 0.5 0 0.5 1
8
 1 0 0 1 0 0 1 1
8
 1 0 0 1 0.4 0 0.6 1
8
 1 0 0 1 0.5 0 0.5 1
8
 1 0 0 1 0 0 1 1
8
 1 0 0 1 0 0 1 1
8
 1 0 0 1 0.1 0 0.9 1
8
 1 0 0 1 0.6 0 0.4 1
8
 1 0 0 1 0.5 0 0.5 1
8
 1 0 0 1 0.1 0 0.9 1
8
 1 0 0 1 0.4 0 0.6 1
8
 1 0 0 1 0 0 1 1
8
 1 0 0 1 0.5 0 0.5 1
8
 1 0 0 1 0 0 1 1
8
 1 0 0 1 0 0 1 1
8
 1 0 0 1 0.1 0 0.9 1
8
 1 0 0 1 0.59 0 0.41 1
8
 1 0 0 1 0 0 1 1
8
 1 0 0 1 0.4 0 0.6 1
8
 1 0 0 1 0 0 1 1
8
 1 0 0 1 0.5 0 0.5 1
8
 1 0 0 1 0.9 0 0.1 1
8
 1 0 0 1 0.5 0 0.5 1
8
 1 0 0 1 0 0 1 1
8
 1 0 0 1 0 0 1 1
8
 1 0 0 1 0.9 0 0.1 1
8
 1 0 0 1 0.6 0 0.4 1
8
 1 0 0 1 0.4 0 0.6 1
8
 1 0 0 1 0.5 0 0.5 1
8
 1 0 0 1 0.1 0 0.9 1
8
 1 0 0 1 0.4 0 0.6 1
8
 1 0 0 1 0 0 1 1
8
 1 0 0 1 0 0 1 1
8
 1 0 0 1 0.5 0 0.5 1
8
 1 0 0 1 0.09 0 0.91 1
8
 1 0 0 1 0 0 1 1
8
 1 0 0 1 0 0 1 1
8
 1 0 0 1 0.5 0 0.5 1
8
 1 0 0 1 0 0 1 1
8
 1 0 0 1 0 0 1 1
8
 1 0 0 1 0.89 0 0.11 1
8
 1 0 0 1 0 0 1 1
8
 1 0 0 1 0 0 1 1
8
 1 0 0 1 0 0 1 1
8
 1 0 0 1 0.5 0 0.5 1
8
 1 0 0 1 0.5 0 0.5 1
8
 1 0 0 1 0.5 0 0.5 1
8
 1 0 0 1 0.5 0 0.5 1
8
 1 0 0 1 0.5 0 0.5 1
8
 1 0 0 1 0 0 1 1
8
 1 0 0 1 0.5 0 0.5 1
8
 1 0 0 1 0.4 0 0.6 1
8
 1 0 0 1 0.5 0 0.5 1
8
 1 0 0 1 0.7 0 0.3 1
8
 1 0 0 1 0.5 0 0.5 1
8
 1 0 0 1 0.89 0 0.11 1
8
 1 0 0 1 0.5 0 0.5 1
8
 1 0 0 1 0.9 0 0.1 1
8
 1 0 0 1 0 0 1 1
8
 1 0 0 1 0.9 0 0.1 1
8
 1 0 0 1 0.5 0 0.5 1
8
 1 0 0 1 0.5 0 0.5 1
8
 1 0 0 1 0 0 1 1
8
 1 0 0 1 0.75 0 0.25 1
8
 1 0 0 1 0 0 1 1
8
 1 0 0 1 0.09 0 0.91 1
8
 1 0 0 1 0.5 0 0.5 1
8
 1 0 0 1 0 0 1 1
8
 1 0 0 1 0.5 0 0.5 1
8
 1 0 0 1 0 0 1 1
8
 1 0 0 1 0 0 1 1
8
 1 0 0 1 0.9 0 0.1 1
8
 1 0 0 1 0.7 0 0.3 1
8
 1 0 0 1 0.4 0 0.6 1
8
 1 0 0 1 0.5 0 0.5 1
8
 1 0 0 1 0.1 0 0.9 1
8
 1 0 0 1 0 0 1 1
8
 1 0 0 1 0.6 0 0.4 1
8
 1 0 0 1 0.5 0 0.5 1
8
 1 0 0 1 0.4 0 0.6 1
8
 1 0 0 1 0.9 0 0.1 1
8
 1 0 0 1 0.5 0 0.5 1
8
 1 0 0 1 0.9 0 0.1 1
8
 1 0 0 1 0 0 1 1
8
 1 0 0 1 0 0 1 1
8
 1 0 0 1 0 0 1 1
8
 1 0 0 1 0.4 0 0.6 1
8
 1 0 0 1 0 0 1 1
8
 1 0 0 1 0.09 0 0.91 1
8
 1 0 0 1 0 0 1 1
8
 1 0 0 1 0.9 0 0.1 1
8
 1 0 0 1 0.5 0 0.5 1
8
 1 0 0 1 0 0 1 1
8
 1 0 0 1 0 0 1 1
8
 1 0 0 1 0 0 1 1
8
 1 0 0 1 0.9 0 0.1 1
8
 1 0 0 1 0 0 1 1
8
 1 0 0 1 0.9 0 0.1 1
8
 1 0 0 1 0 0 1 1
8
 1 0 0 1 0.05 0 0.95 1
8
 1 0 0 1 0.5 0 0.5 1
8
 1 0 0 1 0.5 0 0.5 1
8
 1 0 0 1 0.5 0 0.5 1
8
 1 0 0 1 0 0 1 1
8
 1 0 0 1 0.5 0 0.5 1
8
 1 0 0 1 0 0 1 1
8
 1 0 0 1 0.1 0 0.9 1
8
 1 0 0 1 0 0 1 1
8
 1 0 0 1 0.5 0 0.5 1
8
 1 0 0 1 0 0 1 1
8
 1 0 0 1 0 0 1 1
8
 1 0 0 1 0.9 0 0.1 1
8
 1 0 0 1 0.01 0 0.99 1
2
 0.03 1
8
 1 0 0.9 0.1 0.9 0.1 0.81 0.19
8
 1 0 0 1 0 0 1 1
8
 1 0 0 1 0.3 0 0.7 1
8
 1 0 0 1 0.05 0 0.95 1
8
 1 0 0 1 0.5 0 0.5 1
8
 1 0 0 1 0.9 0 0.1 1
8
 1 0 0 1 0 0 1 1
8
 1 0 0 1 0.5 0 0.5 1
8
 1 0 0 1 0.5 0 0.5 1
8
 1 0 0 1 0.5 0 0.5 1
8
 1 0 0 1 0.89 0 0.11 1
8
 1 0 0 1 0.9 0 0.1 1
8
 1 0 0 1 0.9 0 0.1 1
8
 1 0 0 1 0.5 0 0.5 1
8
 1 0 0 1 0.9 0 0.1 1
8
 1 0 0 1 0.9 0 0.1 1
8
 1 0 0 1 0.5 0 0.5 1
8
 1 0 0 1 0.9 0 0.1 1
8
 1 0 0 1 0 0 1 1
8
 1 0 0 1 0 0 1 1
8
 1 0 0 1 0.89 0 0.11 1
8
 1 0 0 1 0.9 0 0.1 1
8
 1 0 0 1 0.9 0 0.1 1
8
 1 0 0 1 0.5 0 0.5 1
8
 1 0 0 1 0.05 0 0.95 1
8
 1 0 0 1 0.89 0 0.11 1
8
 1 0 0 1 0.9 0 0.1 1
8
 1 0 0 1 0.4 0 0.6 1
8
 1 0 0 1 0.9 0 0.1 1
8
 1 0 0 1 0.9 0 0.1 1
8
 1 0 0 1 0.8 0 0.2 1
8
 1 0 0 1 0.9 0 0.1 1
8
 1 0 0 1 0.8 0 0.2 1
8
 1 0 0 1 0.94 0 0.06 1
8
 1 0 0 1 0.5 0 0.5 1
8
 1 0 0 1 0 0 1 1
8
 1 0 0 1 0.89 0 0.11 1
8
 1 0 0 1 0.3 0 0.7 1
8
 1 0 0 1 0.02 0 0.98 1
8
 1 0 0 1 0.5 0 0.5 1
8
 1 0 0 1 0.9 0 0.1 1
8
 1 0 0 1 0.9 0 0.1 1
8
 1 0 0 1 0.3 0 0.7 1
8
 1 0 0 1 0.9 0 0.1 1
8
 1 0 0 1 0.9 0 0.1 1
8
 1 0 0 1 0.5 0 0.5 1
8
 1 0 0 1 0.3 0 0.7 1
8
 1 0 0 1 0.09 0 0.91 1
8
 1 0 0 1 0.3 0 0.7 1
8
 1 0 0 1 0.9 0 0.1 1
8
 1 0 0 1 0.9 0 0.1 1
8
 1 0 0 1 0.3 0 0.7 1
8
 1 0 0 1 0.94 0 0.06 1
8
 1 0 0 1 0.5 0 0.5 1
8
 1 0 0 1 0.9 0 0.1 1
8
 1 0 0 1 0.79 0 0.21 1
8
 1 0 0 1 0.5 0 0.5 1
8
 1 0 0 1 0.5 0 0.5 1
8
 1 0 0 1 0.5 0 0.5 1
8
 1 0 0 1 0.9 0 0.1 1
8
 1 0 0 1 0.01 0 0.99 1
8
 1 0 0 1 0.89 0 0.11 1
8
 1 0 0 1 0.8 0 0.2 1
8
 1 0 0 1 0.3 0 0.7 1
8
 1 0 0 1 0.89 0 0.11 1
8
 1 0 0 1 0.9 0 0.1 1
8
 1 0 0 1 0.9 0 0.1 1
8
 1 0 0 1 0.85 0 0.15 1
8
 1 0 0 1 0.89 0 0.11 1
8
 1 0 0 1 0.89 0 0.11 1
8
 1 0 0 1 0.8 0 0.2 1
8
 1 0 0 1 0.89 0 0.11 1
8
 1 0 0 1 0.3 0 0.7 1
8
 1 0 0 1 0.8 0 0.2 1
8
 1 0 0 1 0.9 0 0.1 1
8
 1 0 0 1 0.9 0 0.1 1
8
 1 0 0 1 0.5 0 0.5 1
8
 1 0 0 1 0.5 0 0.5 1
8
 1 0 0 1 0.9 0 0.1 1
8
 1 0 0 1 0.8 0 0.2 1
8
 1 0 0 1 0.01 0 0.99 1
8
 1 0 0 1 0.9 0 0.1 1
8
 1 0 0 1 0.9 0 0.1 1
8
 1 0 0 1 0.9 0 0.1 1
8
 1 0 0 1 0.8 0 0.2 1
8
 1 0 0 1 0.7 0 0.3 1
8
 1 0 0 1 0.2 0 0.8 1
8
 1 0 0 1 0.05 0 0.95 1
8
 1 0 0 1 0.8 0 0.2 1
8
 1 0 0 1 0.89 0 0.11 1
8
 1 0 0 1 0.9 0 0.1 1
8
 1 0 0 1 0.3 0 0.7 1
8
 1 0 0 1 0.9 0 0.1 1
8
 1 0 0 1 0.9 0 0.1 1
8
 1 0 0 1 0.5 0 0.5 1
8
 1 0 0 1 0.9 0 0.1 1
8
 1 0 0 1 0.5 0 0.5 1
8
 1 0 0 1 0 0 1 1
8
 1 0 0 1 0.4 0 0.6 1
8
 1 0 0 1 0.9 0 0.1 1
8
 1 0 0 1 0.3 0 0.7 1
8
 1 0 0 1 0.8 0 0.2 1
8
 1 0 0 1 0 0 1 1
8
 1 0 0 1 0.89 0 0.11 1
8
 1 0 0 1 0.3 0 0.7 1
8
 1 0 0 1 0.5 0 0.5 1
8
 1 0 0 1 0.8 0 0.2 1
8
 1 0 0 1 0.61 0 0.39 1
8
 1 0 0 1 0.86 0 0.14 1
8
 1 0 0 1 0.9 0 0.1 1
8
 1 0 0 1 0.94 0 0.06 1
8
 1 0 0 1 0.3 0 0.7 1
8
 1 0 0 1 0.01 0 0.99 1
8
 1 0 0 1 0.9 0 0.1 1
8
 1 0 0 1 0.9 0 0.1 1
8
 1 0 0 1 0.9 0 0.1 1
8
 1 0 0 1 0.9 0 0.1 1
8
 1 0 0 1 0.5 0 0.5 1
8
 1 0 0 1 0.1 0 0.9 1
8
 1 0 0 1 0.9 0 0.1 1
8
 1 0 0 1 0.9 0 0.1 1
8
 1 0 0 1 0.9 0 0.1 1
8
 1 0 0 1 0.9 0 0.1 1
8
 1 0 0 1 0 0 1 1
8
 1 0 0 1 0.9 0 0.1 1
8
 1 0 0 1 0.5 0 0.5 1
8
 1 0 0 1 0.5 0 0.5 1
8
 1 0 0 1 0.1 0 0.9 1
8
 1 0 0 1 0 0 1 1
8
 1 0 0 1 0 0 1 1
8
 1 0 0 1 0.3 0 0.7 1
8
 1 0 0 1 0.5 0 0.5 1
8
 1 0 0 1 0.2 0 0.8 1
8
 1 0 0 1 0 0 1 1
8
 1 0 0 1 0.9 0 0.1 1
8
 1 0 0 1 0.5 0 0.5 1
8
 1 0 0 1 0.89 0 0.11 1
8
 1 0 0 1 0.8 0 0.2 1
8
 1 0 0 1 0.89 0 0.11 1
8
 1 0 0 1 0.89 0 0.11 1
8
 1 0 0 1 0.89 0 0.11 1
8
 1 0 0 1 0.5 0 0.5 1
8
 1 0 0 1 0.9 0 0.1 1
8
 1 0 0 1 0.5 0 0.5 1
8
 1 0 0 1 0.5 0 0.5 1
8
 1 0 0 1 0.3 0 0.7 1
8
 1 0 0 1 0.9 0 0.1 1
8
 1 0 0 1 0.8 0 0.2 1
8
 1 0 0 1 0.8 0 0.2 1
8
 1 0 0 1 0.5 0 0.5 1
8
 1 0 0 1 0.8 0 0.2 1
8
 1 0 0 1 0.01 0 0.99 1
8
 1 0 0 1 0.5 0 0.5 1
8
 1 0 0 1 0.9 0 0.1 1
8
 1 0 0 1 0 0 1 1
8
 1 0 0 1 0.3 0 0.7 1
8
 1 0 0 1 0.5 0 0.5 1
8
 1 0 0 1 0.4 0 0.6 1
8
 1 0 0 1 0.8 0 0.2 1
8
 1 0 0 1 0.9 0 0.1 1
8
 1 0 0 1 0.9 0 0.1 1
8
 1 0 0 1 0.89 0 0.11 1
8
 1 0 0 1 0.2 0 0.8 1
8
 1 0 0 1 0.9 0 0.1 1
8
 1 0 0 1 0.89 0 0.11 1
8
 1 0 0 1 0.94 0 0.06 1
2
 0.03 1
8
 1 0 0.01 0.99 0.5 0.5 0.005 0.995
8
 1 0 0 1 0.2 0 0.8 1
8
 1 0 0 1 0.5 0 0.5 1
8
 1 0 0 1 0.5 0 0.5 1
8
 1 0 0 1 0.01 0 0.99 1
8
 1 0 0 1 0.89 0 0.11 1
8
 1 0 0 1 0.5 0 0.5 1
8
 1 0 0 1 0.5 0 0.5 1
8
 1 0 0 1 0.1 0 0.9 1
8
 1 0 0 1 0.5 0 0.5 1
8
 1 0 0 1 0.89 0 0.11 1
8
 1 0 0 1 0.9 0 0.1 1
8
 1 0 0 1 0.5 0 0.5 1
8
 1 0 0 1 0 0 1 1
8
 1 0 0 1 0.5 0 0.5 1
8
 1 0 0 1 0.5 0 0.5 1
8
 1 0 0 1 0.01 0 0.99 1
8
 1 0 0 1 0.5 0 0.5 1
8
 1 0 0 1 0.9 0 0.1 1
8
 1 0 0 1 0.01 0 0.99 1
8
 1 0 0 1 0.89 0 0.11 1
8
 1 0 0 1 0.5 0 0.5 1
8
 1 0 0 1 0.89 0 0.11 1
8
 1 0 0 1 0.5 0 0.5 1
8
 1 0 0 1 0.01 0 0.99 1
8
 1 0 0 1 0.5 0 0.5 1
8
 1 0 0 1 0.01 0 0.99 1
8
 1 0 0 1 0.5 0 0.5 1
8
 1 0 0 1 0.3 0 0.7 1
8
 1 0 0 1 0.5 0 0.5 1
8
 1 0 0 1 0.1 0 0.9 1
8
 1 0 0 1 0.5 0 0.5 1
8
 1 0 0 1 0.09 0 0.91 1
8
 1 0 0 1 0.5 0 0.5 1
8
 1 0 0 1 0.89 0 0.11 1
8
 1 0 0 1 0.5 0 0.5 1
8
 1 0 0 1 0 0 1 1
2
 0.03 1
2
 0.99995 5e-05
2
 0.9996 0.0004
2
 0.9999 0.0001
2
 0.999995 5e-06
2
 0.9999 0.0001
2
 0.9999 0.0001
2
 0.99999 1e-05
2
 0.99975 0.00025
2
 0.99998 2e-05
2
 0.99999 1e-05
2
 0.999993 7e-06
2
 0.99998 2e-05
2
 1 4e-08
2
 0.99999 1e-05
2
 0.999999 1.4e-06
2
 0.999998 2e-06
2
 0.99995 5e-05
2
 0.999977 2.342e-05
2
 0.9999 0.0001
2
 0.99989 0.00011
2
 0.99998 2e-05
2
 0.9999 0.0001
2
 0.99998 2e-05
2
 0.99998 2e-05
2
 0.99995 5e-05
2
 0.99999 1e-05
2
 0.99992 8e-05
2
 0.99974 0.00026
2
 0.99991 9e-05
2
 1 1.1e-07
2
 0.99998 2e-05
2
 0.99999 1e-05
2
 0.999999 1.26e-06
2
 0.99996 4e-05
2
 0.9999 0.0001
2
 0.99998 2e-05
2
 0.9995 0.0005
2
 0.9999 0.0001
2
 0.99992 8e-05
2
 0.99992 8e-05
2
 0.9999 0.0001
2
 0.9999 0.0001
2
 0.99989 0.00011
2
 0.9996 0.0004
2
 0.99995 5e-05
2
 0.9995 0.0005
2
 0.99999 1e-05
2
 0.9999 0.0001
2
 0.9999 0.0001
2
 0.999999 1e-06
2
 0.9999 0.0001
2
 0.99999 1e-05
2
 0.9995 0.0005
2
 0.99995 5e-05
2
 0.9999 0.0001
2
 0.99991 9e-05
2
 0.9996 0.0004
2
 0.99998 2e-05
2
 0.99999 1e-05
2
 0.99986 0.00014
2
 0.99982 0.00018
2
 0.9999 0.0001
2
 0.9999 0.0001
2
 0.99999 1e-05
2
 0.99995 5e-05
2
 0.9991 0.0009
2
 0.9999 0.0001
2
 0.9998 0.0002
2
 0.9998 0.0002
2
 0.99996 4e-05
2
 0.99992 8e-05
2
 0.99998 2e-05
2
 0.9999 0.0001
2
 0.99998 2e-05
2
 0.99996 4e-05
2
 0.9999 0.0001
2
 0.9997 0.0003
2
 0.99998 2e-05
2
 0.9999 0.0001
2
 0.99993 7e-05
2
 0.9999 0.0001
2
 0.99991 9e-05
2
 0.9999 0.0001
2
 1 1e-08
2
 1 4e-08
2
 0.9999 0.0001
2
 0.99996 4e-05
2
 0.9999 0.0001
2
 0.9999 0.0001
2
 0.9999 0.0001
2
 0.99999 1e-05
2
 0.9999 0.0001
2
 0.999977 2.291e-05
2
 0.9996 0.0004
2
 0.9999 0.0001
2
 0.996 0.004
2
 0.99989 0.00011
2
 0.9995 0.0005
2
 0.998 0.002
2
 0.995 0.005
2
 0.99975 0.00025
2
 0.99998 2.003e-05
2
 0.9985 0.0015
2
 0.99987 0.00013
2
 0.9997 0.0003
2
 0.9995 0.0005
2
 0.99995 5e-05
2
 0.99999 1e-05
2
 0.99995 5e-05
2
 0.9998 0.0002
2
 1 2.8e-07
2
 0.99995 5e-05
2
 0.999991 8.59e-06
2
 0.9985 0.0015
2
 0.999999 1e-06
2
 0.99995 5e-05
2
 0.9999 0.0001
2
 0.99999 1e-05
2
 0.9999 0.0001
2
 0.9999 0.0001
2
 0.9995 0.0005
2
 0.999996 4e-06
2
 1 1.6e-07
2
 0.99999 1e-05
2
 0.9999 0.0001
2
 0.9999 0.0001
2
 0.9999 0.0001
2
 0.999 0.001
2
 0.9999 0.0001
2
 0.999969 3.12e-05
2
 0.999999 1e-06
2
 0.99975 0.00025
2
 0.9999 0.0001
2
 1 1e-08
2
 0.9999 0.0001
2
 0.99999 1e-05
2
 0.9995 0.0005
2
 1 1.4e-07
2
 0.9998 0.0002
2
 0.999953 4.733e-05
2
 0.9999 0.0001
2
 0.99998 2e-05
2
 0.9999 0.0001
2
 0.9999 0.0001
2
 0.9999 0.0001
2
 0.99995 5e-05
2
 0.9995 0.0005
2
 0.99994 6e-05
2
 0.99991 9e-05
2
 0.99991 9e-05
2
 0.9999 0.0001
2
 0.9999 0.0001
2
 0.99995 5e-05
2
 0.9995 0.0005
2
 1 2.9e-07
2
 1 6e-08
2
 0.99994 6e-05
2
 0.9998 0.0002
2
 0.999994 6e-06
2
 0.9998 0.0002
2
 0.9999 0.0001
2
 0.99999 1e-05
2
 0.9999 0.0001
2
 0.99997 3e-05
2
 0.99997 3e-05
2
 0.99997 3e-05
2
 0.999999 1e-06
2
 0.9997 0.0003
2
 1 1e-08
2
 0.99989 0.00011
2
 0.99998 2e-05
2
 0.9999 0.0001
2
 0.9999 0.0001
2
 0.9999 0.0001
2
 1 1e-08
2
 0.9999 0.0001
2
 0.99997 3e-05
2
 0.99998 2e-05
2
 1 1e-07
2
 1 1e-07
2
 0.9999 0.0001
2
 0.99997 3e-05
2
 0.99999 1e-05
2
 0.9999 0.0001
2
 0.9999 0.0001
2
 0.99996 4e-05
2
 0.9999 0.0001
2
 0.999585 0.000415
2
 0.9999 0.0001
2
 0.999999 1e-06
2
 0.9998 0.0002
2
 0.9999 0.0001
2
 0.99993 7e-05
2
 0.9995 0.0005
2
 0.9999 0.0001
2
 0.99995 5e-05
2
 0.99997 3e-05
2
 0.99998 2e-05
2
 0.9999 0.0001
2
 0.9999 0.0001
2
 0.999999 8.1e-07
2
 0.999 0.001
2
 0.99999 1e-05
2
 0.9981 0.0019
2
 0.9999 0.0001
2
 0.99995 5e-05
2
 0.99989 0.00011
2
 0.9999 0.0001
2
 0.99989 0.00011
2
 0.9999 0.0001
2
 0.99975 0.00025
2
 0.9999 0.0001
2
 0.9995 0.0005
2
 0.9999 0.0001
2
 0.999999 1e-06
2
 0.9996 0.0004
2
 0.99994 6e-05
2
 0.9999 0.0001
2
 0.9999 0.0001
2
 0.99999 1e-05
2
 0.9999 0.0001
2
 0.998 0.002
2
 0.999998 2e-06
2
 0.9999 0.0001
2
 0.99989 0.00011
2
 0.99995 5e-05
2
 0.9999 0.0001
2
 0.999 0.001
2
 0.99996 4e-05
2
 0.9999 0.0001
2
 0.9999 0.0001
2
 0.99981 0.00019
2
 0.9999 0.0001
2
 1 1e-08
2
 1 1.7e-07
2
 0.9999 0.0001
2
 0.99995 5e-05
2
 1 1.1e-07
2
 0.9999 0.0001
2
 0.99997 3e-05
2
 0.99999 1e-05
2
 0.9999 0.0001
2
 1 6e-08
2
 0.99996 4e-05
2
 0.9999 0.0001
2
 0.999973 2.7e-05
2
 0.99995 5e-05
2
 0.99991 9e-05
2
 0.99999 1e-05
2
 0.9999 0.0001
2
 0.9999 0.0001
2
 0.9999 0.0001
2
 0.99999 1e-05
2
 0.9999 0.0001
2
 0.9991 0.0009
2
 0.9999 0.0001
2
 0.99995 5e-05
2
 1 1e-08
2
 0.9999 0.0001
2
 0.99985 0.00015
2
 0.99998 2e-05
2
 0.99995 5e-05
2
 0.9999 0.0001
2
 0.9998 0.0002
2
 0.9999 0.0001
2
 0.9998 0.0002
2
 0.9995 0.0005
2
 0.99999 1e-05
2
 0.999997 2.88e-06
2
 0.9995 0.0005
2
 0.99922 0.00078
2
 0.9994 0.0006
2
 0.9998 0.0002
2
 0.99995 5e-05
2
 0.9998 0.0002
2
 0.9999 0.0001
2
 1 5e-07
2
 0.9994 0.0006
2
 0.99999 1e-05
2
 0.9999 0.0001
2
 0.9995 0.0005
2
 0.99999 1e-05
2
 0.9999 0.0001
2
 0.99984 0.00016
2
 0.999 0.001
2
 0.9996 0.0004
2
 0.99989 0.00011
2
 0.99997 3e-05
2
 0.999 0.001
2
 0.996 0.004
2
 0.9999 0.0001
2
 0.99996 4e-05
2
 1 4e-08
2
 0.9999 0.0001
2
 0.99998 2e-05
2
 0.99995 5e-05
2
 0.9965 0.0035
2
 0.9999 0.0001
2
 0.9928 0.0072
2
 0.9999 0.0001
2
 0.9999 0.0001
2
 0.9997 0.0003
2
 0.9999 0.0001
2
 0.99985 0.00015
2
 0.99996 4e-05
2
 0.9999 0.0001
2
 0.9985 0.0015
2
 0.9999 0.0001
2
 0.99995 5e-05
2
 1 1e-08
2
 0.999784 0.000216
2
 0.9988 0.0012
2
 0.99995 5e-05
2
 0.9999 0.0001
2
 0.9995 0.0005
2
 0.999999 6.2e-07
2
 0.99995 5e-05
2
 0.9999 0.0001
2
 0.9999 0.0001
2
 0.99998 2e-05
2
 0.9999 0.0001
2
 1 1.2e-07
2
 0.99998 2e-05
2
 0.99996 4e-05
2
 0.9997 0.0003
2
 0.99998 2e-05
2
 0.99999 1e-05
2
 0.9999 0.0001
2
 0.9999 0.0001
2
 1 2e-08
2
 0.9999 0.0001
2
 0.999907 9.332e-05
2
 0.9994 0.0006
2
 0.9999 0.0001
2
 0.9999 0.0001
2
 0.999999 5.4e-07
2
 0.9999 0.0001
2
 0.99997 3e-05
2
 0.999999 1e-06
2
 0.99995 5e-05
2
 0.999992 8e-06
2
 0.99975 0.00025
2
 0.9999 0.0001
2
 0.99764 0.00236
2
 0.9999 0.0001
2
 0.99999 1e-05
2
 0.9999 0.0001
2
 0.999 0.001
2
 0.9996 0.0004
2
 0.9999 0.0001
2
 0.99999 1e-05
2
 0.9995 0.0005
2
 0.99995 5e-05
2
 0.9999 0.0001
2
 0.99999 1e-05
2
 0.999 0.001
2
 0.99999 1e-05
2
 0.999999 1e-06
2
 0.99997 3e-05
2
 0.9999 0.0001
2
 0.9985 0.0015
2
 1 1e-07
2
 0.99995 5e-05
2
 0.9995 0.0005
2
 0.9999 0.0001
2
 0.99998 2e-05
2
 0.9999 0.0001
2
 0.99997 3e-05
2
 0.99994 6e-05
2
 0.99999 1e-05
2
 0.9999 0.0001
2
 0.9995 0.0005
2
 0.9999 0.0001
2
 0.999 0.001
2
 0.9999 0.0001
2
 0.99989 0.00011
2
 0.9999 0.0001
2
 0.9999 0.0001
2
 0.99999 1e-05
2
 0.99997 3e-05
2
 0.9999 0.0001
2
 0.99998 2e-05
2
 0.99996 4e-05
2
 1 5e-07
1
 1

